183266.44,47.6,59.02
194215.62,44.91,55.7
188479.76,46.28,57.39
164284.72,53.09,65.84
160704.5,54.28,67.31
174716.39,49.92,61.91
180105.06,48.43,60.06
166207.66,52.48,65.08
164616.2,52.99,65.71
160206.67,54.45,67.52
172165.72,50.66,62.83
145230.39,60.06,74.48
167652.52,52.03,64.52
178647.4,48.83,60.55
163746.74,53.27,66.06
162600.69,53.64,66.52
154680.78,56.39,69.93
182338.82,47.84,59.32
157183.33,55.49,68.82
190539.06,45.78,56.77
